* test ESFR-SIMPLE U-Pu-Zr fuel
*---- ----1---- ----2---- ----3---- ----4---- ----5---- ----6---- ----7---- ----8---- ----9--       
*       TIME INTEGRATION CARD                                                                       
*---- ----1---- ----2---- ----3---- ----4---- ----5---- ----6---- ----7---- ----8---- ----9--       
*crdno    meth      rtol      atol      hmax                                                        
000000    GEAR0     1.0E-5    1.E-5     7200.
*---- ----1---- ----2---- ----3---- ----4---- ----5---- ----6---- ----7---- ----8---- ----9--       
*       TRANSIENT CARD                                                                              
*---- ----1---- ----2---- ----3---- ----4---- ----5---- ----6---- ----7---- ----8---- ----9--       
*crdno    itran     nout      ntrac                                                                 
000001    0         1        0
*---- ----1---- ----2---- ----3---- ----4---- ----5---- ----6---- ----7---- ----8---- ----9--       
*       OPTION CARDS                                                                                
*---- ----1---- ----2---- ----3---- ----4---- ----5---- ----6---- ----7---- ----8---- ----9--       
*000002    AXIAL_HEAT_FLUX
000002    OUTPUT_AXIAL_LAYER  12
000002    OUTPUT_FUEL_ROD     1
*
000002    FGR
000002    MODEL_FGR_UPUZR     2
*000002    FUEL_CREEP
000002    FUEL_SWEL
*000002    FUEL_PLAS
*000002    FUEL_DENS           1773.0
000002    FUEL_THK            14
000002    ZR_RED              1
000002    FUEL_MELT           1
*
000002    CLAD_CREEP
000002    CLAD_SWEL
000002    CLAD_PLAS
000002    CLAD_WASTE          1
*
000002    GAP_COND            1
*
000002    COOL_HTC            2
*
*---- ----1---- ----2---- ----3---- ----4---- ----5---- ----6---- ----7---- ----8---- ----9--       
*       RESTART CARD                                                                                
*---- ----1---- ----2---- ----3---- ----4---- ----5---- ----6---- ----7---- ----8---- ----9--       
*crdno    r1        s1                                                                              
000005    0         1                                                                               
*---- ----1---- ----2---- ----3---- ----4---- ----5---- ----6---- ----7---- ----8---- ----9--       
*       INITIAL TEMPERATURE CARD                                                                    
*---- ----1---- ----2---- ----3---- ----4---- ----5---- ----6---- ----7---- ----8---- ----9--       
*crdno    tem0                                                                                      
000006    633.
*---- ----1---- ----2---- ----3---- ----4---- ----5---- ----6---- ----7---- ----8---- ----9--       
*       INITIAL AXIAL DIVISION                                                                      
*---- ----1---- ----2---- ----3---- ----4---- ----5---- ----6---- ----7---- ----8---- ----9--       
*crdno    dz0       nz        nfr
000003    0.03125   24        1
*---- ----1---- ----2---- ----3---- ----4---- ----5---- ----6---- ----7---- ----8---- ----9--       
*       FUEL GEOMETRY CARD                                                                          
*---- ----1---- ----2---- ----3---- ----4---- ----5---- ----6---- ----7---- ----8---- ----9--       
*crdno    fmat      fden      pucont     zrcont    rfi       rfo       ruff      stoch     nf        nfr       
100001    upuzr     15800.    0.1325     0.10      0.0E-3    3.863E-3  1.0E-6    2.0       11        1
*100001    mox       10410.    0.45      0.20      0.0E-3    2.15E-3   3.0E-6    2.0       22       1
*---- ----1---- ----2---- ----3---- ----4---- ----5---- ----6---- ----7---- ----8---- ----9--       
*       GAP CARDS                                                                                   
*---- ----1---- ----2---- ----3---- ----4---- ----5---- ----6---- ----7---- ----8---- ----9--       
*crdno    gmat      dgap      pin       vpl       nfr
*100002    na        4.36E-4   0.84E+5   1.214E-05   1
100002    na        6.38E-4   1.01E+5   7.6375E-5 1
*---- ----1---- ----2---- ----3---- ----4---- ----5---- ----6---- ----7---- ----8---- ----9--       
*       FUEL ROD CLADDING CARD                                                                      
*---- ----1---- ----2---- ----3---- ----4---- ----5---- ----6---- ----7---- ----8---- ----9--       
*crdno    cmat      rco       cden      rufc      nc        nfr
100003    ht9       5.025E-3  7634.5    1.0E-6    5         1
*---- ----1---- ----2---- ----3---- ----4---- ----5---- ----6---- ----7---- ----8---- ----9--       
*     POWER CARD                                                                                    
*---- ----1---- ----2---- ----3---- ----4---- ----5---- ----6---- ----7---- ----8---- ----9--       
*crdno    time      qv
300000	0.00000E+00 0.0000E+00	0.0000E+00	0.0000E+00	0.0000E+00	0.0000E+00	0.0000E+00	0.0000E+00	0.0000E+00	0.0000E+00	0.0000E+00	0.0000E+00	0.0000E+00	0.0000E+00	0.0000E+00	0.0000E+00	0.0000E+00	0.0000E+00	0.0000E+00	0.0000E+00	0.0000E+00	0.0000E+00	0.0000E+00	0.0000E+00	0.0000E+00
300000	1.72800E+05 8.2190E+08	8.4150E+08	8.8046E+08	9.3188E+08	9.8115E+08	1.0280E+09	1.0693E+09	1.1053E+09	1.1343E+09	1.1551E+09	1.1702E+09	1.1748E+09	1.1734E+09	1.1648E+09	1.1459E+09	1.1216E+09	1.0887E+09	1.0486E+09	1.0031E+09	9.5180E+08	8.9727E+08	8.4032E+08	7.9152E+08	7.6107E+08
300000	7.94880E+06 8.2423E+08	8.4389E+08	8.8296E+08	9.3453E+08	9.8393E+08	1.0310E+09	1.0724E+09	1.1085E+09	1.1375E+09	1.1584E+09	1.1735E+09	1.1782E+09	1.1767E+09	1.1681E+09	1.1492E+09	1.1248E+09	1.0918E+09	1.0515E+09	1.0060E+09	9.5450E+08	8.9981E+08	8.4271E+08	7.9377E+08	7.6323E+08
300000	1.57248E+07 8.2656E+08	8.4627E+08	8.8545E+08	9.3716E+08	9.8671E+08	1.0339E+09	1.0754E+09	1.1116E+09	1.1407E+09	1.1616E+09	1.1768E+09	1.1815E+09	1.1801E+09	1.1714E+09	1.1524E+09	1.1279E+09	1.0949E+09	1.0545E+09	1.0088E+09	9.5720E+08	9.0235E+08	8.4509E+08	7.9601E+08	7.6539E+08
300000	2.35008E+07 8.2889E+08	8.4865E+08	8.8794E+08	9.3980E+08	9.8948E+08	1.0368E+09	1.0784E+09	1.1147E+09	1.1439E+09	1.1649E+09	1.1801E+09	1.1848E+09	1.1834E+09	1.1747E+09	1.1557E+09	1.1311E+09	1.0980E+09	1.0575E+09	1.0116E+09	9.5989E+08	9.0489E+08	8.4746E+08	7.9825E+08	7.6754E+08
300000	3.12768E+07 8.3126E+08	8.5108E+08	8.9048E+08	9.4250E+08	9.9232E+08	1.0397E+09	1.0815E+09	1.1179E+09	1.1472E+09	1.1682E+09	1.1835E+09	1.1882E+09	1.1868E+09	1.1781E+09	1.1590E+09	1.1344E+09	1.1011E+09	1.0605E+09	1.0145E+09	9.6264E+08	9.0749E+08	8.4989E+08	8.0054E+08	7.6974E+08
300000	3.14496E+07 8.4567E+08	8.6583E+08	9.0592E+08	9.5883E+08	1.0095E+09	1.0578E+09	1.1002E+09	1.1373E+09	1.1671E+09	1.1885E+09	1.2040E+09	1.2088E+09	1.2073E+09	1.1985E+09	1.1791E+09	1.1540E+09	1.1202E+09	1.0789E+09	1.0321E+09	9.7933E+08	9.2321E+08	8.6462E+08	8.1441E+08	7.8308E+08
300000	3.92256E+07 8.4276E+08	8.6285E+08	9.0280E+08	9.5553E+08	1.0060E+09	1.0541E+09	1.0965E+09	1.1334E+09	1.1631E+09	1.1844E+09	1.1999E+09	1.2046E+09	1.2032E+09	1.1944E+09	1.1750E+09	1.1500E+09	1.1164E+09	1.0752E+09	1.0286E+09	9.7596E+08	9.2004E+08	8.6165E+08	8.1161E+08	7.8039E+08
300000	4.70016E+07 8.3984E+08	8.5987E+08	8.9968E+08	9.5223E+08	1.0026E+09	1.0505E+09	1.0927E+09	1.1295E+09	1.1590E+09	1.1803E+09	1.1957E+09	1.2005E+09	1.1990E+09	1.1902E+09	1.1709E+09	1.1461E+09	1.1125E+09	1.0715E+09	1.0250E+09	9.7258E+08	9.1686E+08	8.5867E+08	8.0880E+08	7.7769E+08
300000	5.47776E+07 8.3693E+08	8.5689E+08	8.9656E+08	9.4893E+08	9.9909E+08	1.0468E+09	1.0889E+09	1.1255E+09	1.1550E+09	1.1762E+09	1.1916E+09	1.1963E+09	1.1949E+09	1.1861E+09	1.1669E+09	1.1421E+09	1.1087E+09	1.0677E+09	1.0215E+09	9.6921E+08	9.1368E+08	8.5569E+08	8.0600E+08	7.7499E+08
300000	6.25536E+07 8.3401E+08	8.5390E+08	8.9343E+08	9.4562E+08	9.9560E+08	1.0432E+09	1.0851E+09	1.1216E+09	1.1510E+09	1.1721E+09	1.1874E+09	1.1921E+09	1.1907E+09	1.1820E+09	1.1628E+09	1.1381E+09	1.1048E+09	1.0640E+09	1.0179E+09	9.6583E+08	9.1049E+08	8.5271E+08	8.0318E+08	7.7229E+08
300000	6.27264E+07 8.3395E+08	8.5384E+08	8.9337E+08	9.4555E+08	9.9553E+08	1.0431E+09	1.0850E+09	1.1215E+09	1.1509E+09	1.1720E+09	1.1873E+09	1.1920E+09	1.1906E+09	1.1819E+09	1.1627E+09	1.1380E+09	1.1047E+09	1.0639E+09	1.0178E+09	9.6576E+08	9.1042E+08	8.5265E+08	8.0313E+08	7.7223E+08
300000	6.28992E+07 8.5116E+08	8.7146E+08	9.1180E+08	9.6506E+08	1.0161E+09	1.0646E+09	1.1074E+09	1.1447E+09	1.1747E+09	1.1962E+09	1.2118E+09	1.2166E+09	1.2152E+09	1.2063E+09	1.1867E+09	1.1615E+09	1.1275E+09	1.0859E+09	1.0388E+09	9.8569E+08	9.2921E+08	8.7024E+08	8.1970E+08	7.8817E+08
300000	7.06752E+07 8.4067E+08	8.6071E+08	9.0056E+08	9.5316E+08	1.0035E+09	1.0515E+09	1.0937E+09	1.1306E+09	1.1602E+09	1.1815E+09	1.1969E+09	1.2016E+09	1.2002E+09	1.1914E+09	1.1721E+09	1.1472E+09	1.1136E+09	1.0725E+09	1.0260E+09	9.7353E+08	9.1775E+08	8.5951E+08	8.0959E+08	7.7845E+08
300000	7.84512E+07 8.3017E+08	8.4996E+08	8.8931E+08	9.4126E+08	9.9101E+08	1.0384E+09	1.0801E+09	1.1165E+09	1.1457E+09	1.1667E+09	1.1819E+09	1.1866E+09	1.1852E+09	1.1765E+09	1.1574E+09	1.1329E+09	1.0997E+09	1.0591E+09	1.0132E+09	9.6138E+08	9.0629E+08	8.4878E+08	7.9948E+08	7.6873E+08
300000	8.62272E+07 8.1967E+08	8.3922E+08	8.7807E+08	9.2935E+08	9.7848E+08	1.0252E+09	1.0664E+09	1.1023E+09	1.1312E+09	1.1520E+09	1.1670E+09	1.1716E+09	1.1702E+09	1.1616E+09	1.1428E+09	1.1185E+09	1.0858E+09	1.0457E+09	1.0004E+09	9.4922E+08	8.9483E+08	8.3804E+08	7.8937E+08	7.5901E+08
300000	9.40032E+07 8.0917E+08	8.2847E+08	8.6682E+08	9.1745E+08	9.6595E+08	1.0121E+09	1.0528E+09	1.0882E+09	1.1167E+09	1.1372E+09	1.1521E+09	1.1566E+09	1.1552E+09	1.1468E+09	1.1282E+09	1.1042E+09	1.0719E+09	1.0323E+09	9.8758E+08	9.3706E+08	8.8337E+08	8.2731E+08	7.7926E+08	7.4929E+08
300000	9.41760E+07 8.0894E+08	8.2823E+08	8.6657E+08	9.1719E+08	9.6567E+08	1.0118E+09	1.0525E+09	1.0879E+09	1.1164E+09	1.1369E+09	1.1517E+09	1.1563E+09	1.1549E+09	1.1464E+09	1.1279E+09	1.1039E+09	1.0716E+09	1.0320E+09	9.8729E+08	9.3679E+08	8.8312E+08	8.2707E+08	7.7904E+08	7.4907E+08
300000	9.43488E+07 8.4566E+08	8.6583E+08	9.0591E+08	9.5882E+08	1.0095E+09	1.0578E+09	1.1002E+09	1.1373E+09	1.1671E+09	1.1885E+09	1.2040E+09	1.2088E+09	1.2073E+09	1.1985E+09	1.1791E+09	1.1540E+09	1.1202E+09	1.0789E+09	1.0321E+09	9.7932E+08	9.2321E+08	8.6462E+08	8.1440E+08	7.8308E+08
300000	1.02125E+08 8.3794E+08	8.5793E+08	8.9764E+08	9.5007E+08	1.0003E+09	1.0481E+09	1.0902E+09	1.1269E+09	1.1564E+09	1.1776E+09	1.1930E+09	1.1978E+09	1.1963E+09	1.1875E+09	1.1683E+09	1.1435E+09	1.1100E+09	1.0690E+09	1.0227E+09	9.7038E+08	9.1478E+08	8.5673E+08	8.0697E+08	7.7593E+08
300000	1.09901E+08 8.3023E+08	8.5002E+08	8.8938E+08	9.4132E+08	9.9108E+08	1.0384E+09	1.0802E+09	1.1165E+09	1.1458E+09	1.1668E+09	1.1820E+09	1.1867E+09	1.1853E+09	1.1766E+09	1.1575E+09	1.1329E+09	1.0998E+09	1.0592E+09	1.0133E+09	9.6145E+08	9.0636E+08	8.4884E+08	7.9954E+08	7.6878E+08
300000	1.17677E+08 8.2251E+08	8.4212E+08	8.8111E+08	9.3257E+08	9.8187E+08	1.0288E+09	1.0701E+09	1.1062E+09	1.1351E+09	1.1559E+09	1.1710E+09	1.1757E+09	1.1743E+09	1.1657E+09	1.1468E+09	1.1224E+09	1.0896E+09	1.0493E+09	1.0039E+09	9.5251E+08	8.9793E+08	8.4095E+08	7.9211E+08	7.6164E+08
300000	1.25453E+08 8.1479E+08	8.3421E+08	8.7283E+08	9.2382E+08	9.7265E+08	1.0191E+09	1.0601E+09	1.0958E+09	1.1245E+09	1.1451E+09	1.1600E+09	1.1646E+09	1.1632E+09	1.1547E+09	1.1360E+09	1.1119E+09	1.0793E+09	1.0395E+09	9.9443E+08	9.4356E+08	8.8950E+08	8.3305E+08	7.8467E+08	7.5448E+08
300000	1.25626E+08 8.1462E+08	8.3404E+08	8.7265E+08	9.2362E+08	9.7245E+08	1.0189E+09	1.0598E+09	1.0955E+09	1.1242E+09	1.1448E+09	1.1598E+09	1.1644E+09	1.1630E+09	1.1545E+09	1.1358E+09	1.1116E+09	1.0791E+09	1.0393E+09	9.9422E+08	9.4337E+08	8.8931E+08	8.3288E+08	7.8451E+08	7.5433E+08
300000	1.25798E+08 8.3693E+08	8.5689E+08	8.9656E+08	9.4893E+08	9.9909E+08	1.0468E+09	1.0889E+09	1.1255E+09	1.1550E+09	1.1762E+09	1.1916E+09	1.1963E+09	1.1949E+09	1.1861E+09	1.1669E+09	1.1421E+09	1.1087E+09	1.0677E+09	1.0215E+09	9.6921E+08	9.1368E+08	8.5569E+08	8.0600E+08	7.7499E+08
300000	1.33574E+08 8.3249E+08	8.5235E+08	8.9180E+08	9.4389E+08	9.9379E+08	1.0413E+09	1.0831E+09	1.1196E+09	1.1489E+09	1.1700E+09	1.1853E+09	1.1900E+09	1.1885E+09	1.1798E+09	1.1607E+09	1.1360E+09	1.1028E+09	1.0621E+09	1.0160E+09	9.6407E+08	9.0883E+08	8.5115E+08	8.0172E+08	7.7088E+08
300000	1.41350E+08 8.2806E+08	8.4780E+08	8.8705E+08	9.3886E+08	9.8849E+08	1.0357E+09	1.0773E+09	1.1136E+09	1.1428E+09	1.1637E+09	1.1789E+09	1.1836E+09	1.1822E+09	1.1735E+09	1.1545E+09	1.1300E+09	1.0969E+09	1.0564E+09	1.0106E+09	9.5893E+08	9.0399E+08	8.4662E+08	7.9745E+08	7.6677E+08
300000	1.49126E+08 8.2362E+08	8.4326E+08	8.8230E+08	9.3383E+08	9.8319E+08	1.0302E+09	1.0716E+09	1.1076E+09	1.1366E+09	1.1575E+09	1.1726E+09	1.1773E+09	1.1759E+09	1.1672E+09	1.1483E+09	1.1239E+09	1.0910E+09	1.0508E+09	1.0052E+09	9.5379E+08	8.9914E+08	8.4208E+08	7.9317E+08	7.6266E+08
300000	1.56902E+08 8.1918E+08	8.3871E+08	8.7754E+08	9.2880E+08	9.7790E+08	1.0246E+09	1.0658E+09	1.1017E+09	1.1305E+09	1.1513E+09	1.1663E+09	1.1709E+09	1.1695E+09	1.1609E+09	1.1421E+09	1.1179E+09	1.0851E+09	1.0451E+09	9.9979E+08	9.4865E+08	8.9430E+08	8.3754E+08	7.8890E+08	7.5855E+08
300000	1.57075E+08 8.1908E+08	8.3862E+08	8.7744E+08	9.2869E+08	9.7778E+08	1.0245E+09	1.0657E+09	1.1015E+09	1.1304E+09	1.1511E+09	1.1662E+09	1.1708E+09	1.1694E+09	1.1608E+09	1.1420E+09	1.1177E+09	1.0850E+09	1.0450E+09	9.9967E+08	9.4854E+08	8.9419E+08	8.3744E+08	7.8881E+08	7.5847E+08
300000	1.57248E+08 8.4123E+08	8.6129E+08	9.0116E+08	9.5380E+08	1.0042E+09	1.0522E+09	1.0945E+09	1.1313E+09	1.1610E+09	1.1823E+09	1.1977E+09	1.2024E+09	1.2010E+09	1.1922E+09	1.1729E+09	1.1480E+09	1.1144E+09	1.0732E+09	1.0267E+09	9.7419E+08	9.1837E+08	8.6009E+08	8.1014E+08	7.7897E+08
300000	1.65024E+08 8.3196E+08	8.5180E+08	8.9123E+08	9.4329E+08	9.9315E+08	1.0406E+09	1.0824E+09	1.1189E+09	1.1482E+09	1.1692E+09	1.1845E+09	1.1892E+09	1.1878E+09	1.1790E+09	1.1599E+09	1.1353E+09	1.1021E+09	1.0614E+09	1.0154E+09	9.6345E+08	9.0825E+08	8.5061E+08	8.0121E+08	7.7039E+08
300000	1.72800E+08 8.2269E+08	8.4230E+08	8.8130E+08	9.3277E+08	9.8208E+08	1.0290E+09	1.0703E+09	1.1064E+09	1.1354E+09	1.1562E+09	1.1713E+09	1.1759E+09	1.1745E+09	1.1659E+09	1.1470E+09	1.1226E+09	1.0898E+09	1.0496E+09	1.0041E+09	9.5271E+08	8.9812E+08	8.4113E+08	7.9228E+08	7.6180E+08
300000	1.80576E+08 8.1341E+08	8.3281E+08	8.7136E+08	9.2226E+08	9.7101E+08	1.0174E+09	1.0583E+09	1.0939E+09	1.1226E+09	1.1432E+09	1.1581E+09	1.1627E+09	1.1613E+09	1.1528E+09	1.1341E+09	1.1100E+09	1.0775E+09	1.0377E+09	9.9275E+08	9.4197E+08	8.8800E+08	8.3165E+08	7.8335E+08	7.5321E+08
300000	1.88352E+08 8.0414E+08	8.2332E+08	8.6143E+08	9.1175E+08	9.5994E+08	1.0058E+09	1.0462E+09	1.0814E+09	1.1098E+09	1.1301E+09	1.1449E+09	1.1494E+09	1.1480E+09	1.1396E+09	1.1212E+09	1.0973E+09	1.0652E+09	1.0259E+09	9.8144E+08	9.3124E+08	8.7788E+08	8.2217E+08	7.7442E+08	7.4463E+08
300000	1.88525E+08 8.0394E+08	8.2311E+08	8.6121E+08	9.1151E+08	9.5970E+08	1.0056E+09	1.0459E+09	1.0812E+09	1.1095E+09	1.1298E+09	1.1446E+09	1.1491E+09	1.1478E+09	1.1393E+09	1.1209E+09	1.0971E+09	1.0650E+09	1.0256E+09	9.8119E+08	9.3100E+08	8.7765E+08	8.2196E+08	7.7422E+08	7.4444E+08
*---- ----1---- ----2---- ----3---- ----4---- ----5---- ----6---- ----7---- ----8---- ----9--       
*     FUEL STOICHIOMETRY VS BURNUP                                                                  
*---- ----1---- ----2---- ----3---- ----4---- ----5---- ----6---- ----7---- ----8---- ----9--       
*crdno    bup       stoich
400005    0.0       2.0
400005   100.0      2.0
*---- ----1---- ----2---- ----3---- ----4---- ----5---- ----6---- ----7---- ----8---- ----9--       
*       COOLANT CARD                                                                                
*---- ----1---- ----2---- ----3---- ----4---- ----5---- ----6---- ----7---- ----8---- ----9--       
*crdno    ctype     dhyd      xarea     press     flowr     tcoolin                                 
500000    na        3.887E-03 3.301E-05 3.856E+05 0.162   6.33E+02
*                                                                        
*---- ----1---- ----2---- ----3---- ----4---- ----5---- ----6---- ----7---- ----8---- ----9--       
*    BASE IRRADIATION TIME CARD                                                                     
*---- ----1---- ----2---- ----3---- ----4---- ----5---- ----6---- ----7---- ----8---- ----9--       
*crdno    tstart    tend                dtout                                                       
600000    0.0      1.8860E+08           1000.0
600001	1.72800E+05
600001	7.94880E+06
600001	1.57248E+07
600001	2.35008E+07
600001	3.12768E+07
600001	3.14496E+07
600001	3.92256E+07
600001	4.70016E+07
600001	5.47776E+07
600001	6.25536E+07
600001	6.27264E+07
600001	6.28992E+07
600001	7.06752E+07
600001	7.84512E+07
600001	8.62272E+07
600001	9.40032E+07
600001	9.41760E+07
600001	9.43488E+07
600001	1.02125E+08
600001	1.09901E+08
600001	1.17677E+08
600001	1.25453E+08
600001	1.25626E+08
600001	1.25798E+08
600001	1.33574E+08
600001	1.41350E+08
600001	1.49126E+08
600001	1.56902E+08
600001	1.57075E+08
600001	1.57248E+08
600001	1.65024E+08
600001	1.72800E+08
600001	1.80576E+08
600001	1.88352E+08
600001	1.88525E+08
$ 