* test ESFR-SIMPLE U-Pu-Zr fuel
*---- ----1---- ----2---- ----3---- ----4---- ----5---- ----6---- ----7---- ----8---- ----9--       
*       TIME INTEGRATION CARD                                                                       
*---- ----1---- ----2---- ----3---- ----4---- ----5---- ----6---- ----7---- ----8---- ----9--       
*crdno    meth      rtol      atol      hmax                                                        
000000    GEAR0     1.0E-5    1.E-5     7200.
*---- ----1---- ----2---- ----3---- ----4---- ----5---- ----6---- ----7---- ----8---- ----9--       
*       TRANSIENT CARD                                                                              
*---- ----1---- ----2---- ----3---- ----4---- ----5---- ----6---- ----7---- ----8---- ----9--       
*crdno    itran     nout      ntrac                                                                 
000001    0         1        0
*---- ----1---- ----2---- ----3---- ----4---- ----5---- ----6---- ----7---- ----8---- ----9--       
*       OPTION CARDS                                                                                
*---- ----1---- ----2---- ----3---- ----4---- ----5---- ----6---- ----7---- ----8---- ----9--       
*000002    AXIAL_HEAT_FLUX
000002    OUTPUT_AXIAL_LAYER  12
000002    OUTPUT_FUEL_ROD     1
*
000002    FGR
000002    MODEL_FGR_UPUZR     2
*000002    FUEL_CREEP
000002    FUEL_SWEL
*000002    FUEL_PLAS
*000002    FUEL_DENS           1773.0
000002    FUEL_THK            14
000002    ZR_RED              1
000002    FUEL_MELT           1
*
000002    CLAD_CREEP
000002    CLAD_SWEL
000002    CLAD_PLAS
000002    CLAD_WASTE          1
*
000002    GAP_COND            1
*
000002    COOL_HTC            2
*
*---- ----1---- ----2---- ----3---- ----4---- ----5---- ----6---- ----7---- ----8---- ----9--       
*       RESTART CARD                                                                                
*---- ----1---- ----2---- ----3---- ----4---- ----5---- ----6---- ----7---- ----8---- ----9--       
*crdno    r1        s1                                                                              
000005    0         1                                                                               
*---- ----1---- ----2---- ----3---- ----4---- ----5---- ----6---- ----7---- ----8---- ----9--       
*       INITIAL TEMPERATURE CARD                                                                    
*---- ----1---- ----2---- ----3---- ----4---- ----5---- ----6---- ----7---- ----8---- ----9--       
*crdno    tem0                                                                                      
000006    633.
*---- ----1---- ----2---- ----3---- ----4---- ----5---- ----6---- ----7---- ----8---- ----9--       
*       INITIAL AXIAL DIVISION                                                                      
*---- ----1---- ----2---- ----3---- ----4---- ----5---- ----6---- ----7---- ----8---- ----9--       
*crdno    dz0       nz        nfr
000003    0.0395833 24        1
*---- ----1---- ----2---- ----3---- ----4---- ----5---- ----6---- ----7---- ----8---- ----9--       
*       FUEL GEOMETRY CARD                                                                          
*---- ----1---- ----2---- ----3---- ----4---- ----5---- ----6---- ----7---- ----8---- ----9--       
*crdno    fmat      fden      pucont     zrcont    rfi       rfo       ruff      stoch     nf        nfr       
100001    upuzr     15800.    0.1325     0.10      0.0E-3    3.863E-3  1.0E-6    2.0       11        1
*100001    mox       10410.    0.45      0.20      0.0E-3    2.15E-3   3.0E-6    2.0       22       1
*---- ----1---- ----2---- ----3---- ----4---- ----5---- ----6---- ----7---- ----8---- ----9--       
*       GAP CARDS                                                                                   
*---- ----1---- ----2---- ----3---- ----4---- ----5---- ----6---- ----7---- ----8---- ----9--       
*crdno    gmat      dgap      pin       vpl       nfr
*100002    na        4.36E-4   0.84E+5   1.214E-05   1
100002    na        6.38E-4   1.01E+5   6.36455E-5   1
*---- ----1---- ----2---- ----3---- ----4---- ----5---- ----6---- ----7---- ----8---- ----9--       
*       FUEL ROD CLADDING CARD                                                                      
*---- ----1---- ----2---- ----3---- ----4---- ----5---- ----6---- ----7---- ----8---- ----9--       
*crdno    cmat      rco       cden      rufc      nc        nfr
100003    ht9       5.025E-3  7634.5    1.0E-6    5         1
*---- ----1---- ----2---- ----3---- ----4---- ----5---- ----6---- ----7---- ----8---- ----9--       
*     POWER CARD                                                                                    
*---- ----1---- ----2---- ----3---- ----4---- ----5---- ----6---- ----7---- ----8---- ----9--       
*crdno    time      qv
300000    0.0000E+00     3.9631E+08	    4.1697E+08     4.4849E+08	  4.8391E+08     5.1816E+08	    5.4853E+08	   5.7451E+08	  5.9586E+08	 6.1235E+08 	6.2382E+08	   6.2867E+08	  6.2820E+08	 6.2247E+08     6.1163E+08	   5.9578E+08     5.7424E+08	 5.4853E+08	    5.1905E+08	   4.8625E+08	  4.5061E+08	 4.1287E+08	    3.7516E+08	   3.4208E+08	  3.2002E+08
300000    3.9096E+06     3.9688E+08	    4.1757E+08     4.4914E+08	  4.8461E+08     5.1891E+08	    5.4932E+08	   5.7533E+08	  5.9672E+08	 6.1323E+08 	6.2471E+08	   6.2957E+08	  6.2910E+08	 6.2337E+08     6.1251E+08	   5.9664E+08     5.7507E+08	 5.4932E+08	    5.1980E+08	   4.8695E+08	  4.5126E+08	 4.1347E+08	    3.7570E+08	   3.4257E+08	  3.2048E+08
300000    7.8192E+06     3.9745E+08	    4.1817E+08     4.4978E+08	  4.8530E+08     5.1965E+08	    5.5011E+08	   5.7616E+08	  5.9758E+08	 6.1411E+08 	6.2561E+08	   6.3048E+08	  6.3001E+08	 6.2426E+08     6.1339E+08	   5.9750E+08     5.7589E+08	 5.5011E+08	    5.2054E+08	   4.8765E+08	  4.5191E+08	 4.1406E+08	    3.7624E+08	   3.4306E+08	  3.2094E+08
300000    1.1729E+07     3.9802E+08	    4.1877E+08     4.5043E+08	  4.8600E+08     5.2040E+08	    5.5090E+08	   5.7699E+08	  5.9843E+08	 6.1499E+08 	6.2651E+08	   6.3139E+08	  6.3091E+08	 6.2516E+08     6.1427E+08	   5.9836E+08     5.7672E+08	 5.5090E+08	    5.2129E+08	   4.8835E+08	  4.5256E+08	 4.1465E+08	    3.7678E+08	   3.4355E+08	  3.2140E+08
300000    1.5638E+07     3.9859E+08	    4.1937E+08     4.5107E+08	  4.8670E+08     5.2114E+08	    5.5169E+08	   5.7781E+08	  5.9929E+08	 6.1587E+08 	6.2741E+08	   6.3229E+08	  6.3181E+08	 6.2605E+08     6.1515E+08	   5.9921E+08     5.7755E+08	 5.5168E+08	    5.2204E+08	   4.8905E+08	  4.5321E+08	 4.1525E+08	    3.7732E+08	   3.4404E+08	  3.2186E+08
300000    1.9548E+07     3.9916E+08	    4.1997E+08     4.5172E+08	  4.8740E+08     5.2189E+08	    5.5248E+08	   5.7864E+08	  6.0015E+08	 6.1676E+08 	6.2831E+08	   6.3320E+08	  6.3272E+08	 6.2696E+08     6.1604E+08	   6.0007E+08     5.7838E+08	 5.5248E+08	    5.2279E+08	   4.8975E+08	  4.5386E+08	 4.1585E+08	    3.7786E+08	   3.4454E+08	  3.2233E+08
300000    2.3458E+07     3.9973E+08	    4.2057E+08     4.5236E+08	  4.8809E+08     5.2264E+08	    5.5327E+08	   5.7947E+08	  6.0101E+08	 6.1764E+08 	6.2921E+08	   6.3410E+08	  6.3363E+08	 6.2785E+08     6.1692E+08	   6.0093E+08     5.7920E+08	 5.5327E+08	    5.2353E+08	   4.9045E+08	  4.5451E+08	 4.1644E+08	    3.7840E+08	   3.4503E+08	  3.2279E+08
300000    2.7367E+07     4.0030E+08	    4.2117E+08     4.5301E+08	  4.8879E+08     5.2338E+08	    5.5406E+08	   5.8030E+08	  6.0187E+08	 6.1852E+08 	6.3010E+08	   6.3501E+08	  6.3453E+08	 6.2874E+08     6.1780E+08	   6.0179E+08     5.8003E+08	 5.5405E+08	    5.2428E+08	   4.9115E+08	  4.5516E+08	 4.1703E+08	    3.7894E+08	   3.4552E+08	  3.2325E+08
300000    3.1277E+07     4.0087E+08	    4.2177E+08     4.5365E+08	  4.8948E+08     5.2413E+08	    5.5485E+08	   5.8112E+08	  6.0272E+08	 6.1940E+08 	6.3100E+08	   6.3591E+08	  6.3543E+08	 6.2964E+08     6.1867E+08	   6.0264E+08     5.8085E+08	 5.5484E+08	    5.2503E+08	   4.9185E+08	  4.5580E+08	 4.1763E+08	    3.7948E+08	   3.4601E+08	  3.2371E+08
300000    3.1363E+07     3.9494E+08	    4.1552E+08     4.4694E+08	  4.8224E+08     5.1637E+08	    5.4664E+08	   5.7252E+08	  5.9380E+08	 6.1023E+08 	6.2166E+08	   6.2649E+08	  6.2602E+08	 6.2032E+08     6.0952E+08	   5.9372E+08     5.7225E+08	 5.4663E+08	    5.1725E+08	   4.8457E+08	  4.4905E+08	 4.1144E+08	    3.7386E+08	   3.4089E+08	  3.1891E+08
300000    4.7002E+07     3.9790E+08	    4.1864E+08     4.5029E+08	  4.8586E+08     5.2024E+08	    5.5074E+08	   5.7681E+08	  5.9826E+08	 6.1481E+08 	6.2632E+08	   6.3120E+08	  6.3072E+08	 6.2497E+08     6.1409E+08	   5.9818E+08     5.7655E+08	 5.5073E+08	    5.2113E+08	   4.8821E+08	  4.5243E+08	 4.1453E+08	    3.7667E+08	   3.4345E+08	  3.2131E+08
300000    6.2640E+07     4.0086E+08	    4.2176E+08     4.5364E+08	  4.8947E+08     5.2412E+08	    5.5484E+08	   5.8111E+08	  6.0271E+08	 6.1939E+08 	6.3099E+08	   6.3590E+08	  6.3542E+08	 6.2963E+08     6.1866E+08	   6.0263E+08     5.8084E+08	 5.5483E+08	    5.2502E+08	   4.9184E+08	  4.5579E+08	 4.1762E+08	    3.7948E+08	   3.4601E+08	  3.2370E+08
300000    6.2726E+07     3.9367E+08	    4.1419E+08     4.4550E+08	  4.8069E+08     5.1471E+08	    5.4488E+08	   5.7068E+08	  5.9189E+08	 6.0827E+08 	6.1966E+08	   6.2448E+08	  6.2401E+08	 6.1832E+08     6.0756E+08	   5.9181E+08     5.7041E+08	 5.4487E+08	    5.1559E+08	   4.8301E+08	  4.4761E+08	 4.1012E+08	    3.7266E+08	   3.3980E+08	  3.1789E+08
300000    7.8365E+07     3.9514E+08	    4.1574E+08     4.4717E+08	  4.8248E+08     5.1663E+08	    5.4692E+08	   5.7281E+08	  5.9411E+08	 6.1054E+08 	6.2198E+08	   6.2682E+08	  6.2635E+08	 6.2064E+08     6.0983E+08	   5.9403E+08     5.7255E+08	 5.4691E+08	    5.1752E+08	   4.8482E+08	  4.4929E+08	 4.1165E+08	    3.7406E+08	   3.4107E+08	  3.1908E+08
300000    9.4003E+07     3.9661E+08	    4.1729E+08     4.4884E+08	  4.8428E+08     5.1856E+08	    5.4896E+08	   5.7495E+08	  5.9632E+08	 6.1282E+08 	6.2430E+08	   6.2915E+08	  6.2868E+08	 6.2295E+08     6.1210E+08	   5.9624E+08     5.7468E+08	 5.4895E+08	    5.1945E+08	   4.8663E+08	  4.5096E+08	 4.1319E+08	    3.7545E+08	   3.4234E+08	  3.2027E+08
300000    9.4090E+07     3.9208E+08	    4.1252E+08     4.4371E+08	  4.7875E+08     5.1264E+08	    5.4269E+08	   5.6838E+08	  5.8951E+08	 6.0582E+08 	6.1717E+08	   6.2197E+08	  6.2150E+08	 6.1584E+08     6.0511E+08	   5.8943E+08     5.6812E+08	 5.4268E+08	    5.1352E+08	   4.8107E+08	  4.4581E+08	 4.0847E+08	    3.7116E+08	   3.3843E+08	  3.1661E+08
300000    1.0973E+08     3.9544E+08	    4.1606E+08     4.4751E+08	  4.8286E+08     5.1703E+08	    5.4734E+08	   5.7325E+08	  5.9456E+08	 6.1101E+08 	6.2246E+08	   6.2730E+08	  6.2683E+08	 6.2111E+08     6.1030E+08	   5.9448E+08     5.7299E+08	 5.4733E+08	    5.1792E+08	   4.8519E+08	  4.4963E+08	 4.1197E+08	    3.7434E+08	   3.4133E+08	  3.1932E+08
300000    1.2537E+08     3.9880E+08	    4.1959E+08     4.5131E+08	  4.8696E+08     5.2142E+08	    5.5199E+08	   5.7812E+08	  5.9961E+08	 6.1620E+08 	6.2775E+08	   6.3263E+08	  6.3215E+08	 6.2639E+08     6.1548E+08	   5.9954E+08     5.7786E+08	 5.5198E+08	    5.2232E+08	   4.8931E+08	  4.5345E+08	 4.1547E+08	    3.7753E+08	   3.4423E+08	  3.2204E+08
300000    1.2545E+08     3.9365E+08	    4.1417E+08     4.4548E+08	  4.8066E+08     5.1468E+08	    5.4485E+08	   5.7065E+08	  5.9186E+08	 6.0824E+08 	6.1963E+08	   6.2445E+08	  6.2398E+08	 6.1830E+08     6.0753E+08	   5.9179E+08     5.7039E+08	 5.4485E+08	    5.1557E+08	   4.8299E+08	  4.4759E+08	 4.1010E+08	    3.7265E+08	   3.3978E+08	  3.1787E+08
300000    1.4109E+08     3.9823E+08	    4.1899E+08     4.5066E+08	  4.8626E+08     5.2067E+08	    5.5119E+08	   5.7729E+08	  5.9875E+08	 6.1531E+08 	6.2684E+08	   6.3172E+08	  6.3124E+08	 6.2549E+08     6.1460E+08	   5.9867E+08     5.7702E+08	 5.5118E+08	    5.2156E+08	   4.8861E+08	  4.5280E+08	 4.1487E+08	    3.7698E+08	   3.4373E+08	  3.2157E+08
300000    1.5673E+08     4.0281E+08	    4.2380E+08     4.5584E+08	  4.9185E+08     5.2666E+08	    5.5753E+08	   5.8393E+08	  6.0563E+08	 6.2239E+08 	6.3405E+08	   6.3898E+08	  6.3850E+08	 6.3268E+08     6.2166E+08	   6.0555E+08     5.8366E+08	 5.5752E+08	    5.2756E+08	   4.9423E+08	  4.5800E+08	 4.1964E+08	    3.8132E+08	   3.4769E+08	  3.2527E+08
300000    1.5682E+08     3.9511E+08	    4.1571E+08     4.4714E+08	  4.8245E+08     5.1660E+08	    5.4688E+08	   5.7278E+08	  5.9407E+08	 6.1050E+08 	6.2194E+08	   6.2678E+08	  6.2631E+08	 6.2060E+08     6.0979E+08	   5.9399E+08     5.7251E+08	 5.4687E+08	    5.1749E+08	   4.8479E+08	  4.4926E+08	 4.1163E+08	    3.7403E+08	   3.4105E+08	  3.1906E+08
300000    1.7245E+08     3.9834E+08	    4.1910E+08     4.5079E+08	  4.8639E+08     5.2081E+08	    5.5134E+08	   5.7745E+08	  5.9891E+08	 6.1548E+08 	6.2701E+08	   6.3189E+08	  6.3142E+08	 6.2566E+08     6.1476E+08	   5.9883E+08     5.7718E+08	 5.5134E+08	    5.2171E+08	   4.8874E+08	  4.5292E+08	 4.1499E+08	    3.7708E+08	   3.4383E+08	  3.2166E+08
300000    1.8809E+08     4.0156E+08	    4.2249E+08     4.5443E+08	  4.9032E+08     5.2503E+08	    5.5580E+08	   5.8212E+08	  6.0376E+08	 6.2046E+08 	6.3208E+08	   6.3700E+08	  6.3652E+08	 6.3072E+08     6.1974E+08	   6.0368E+08     5.8185E+08	 5.5580E+08	    5.2593E+08	   4.9270E+08	  4.5659E+08	 4.1834E+08	    3.8013E+08	   3.4661E+08	  3.2426E+08																																																																					   
*---- ----1---- ----2---- ----3---- ----4---- ----5---- ----6---- ----7---- ----8---- ----9--       
*     FUEL STOICHIOMETRY VS BURNUP                                                                  
*---- ----1---- ----2---- ----3---- ----4---- ----5---- ----6---- ----7---- ----8---- ----9--       
*crdno    bup       stoich
400005    0.0       2.0
400005   100.0      2.0
*---- ----1---- ----2---- ----3---- ----4---- ----5---- ----6---- ----7---- ----8---- ----9--       
*       COOLANT CARD                                                                                
*---- ----1---- ----2---- ----3---- ----4---- ----5---- ----6---- ----7---- ----8---- ----9--       
*crdno    ctype     dhyd      xarea     press     flowr     tcoolin                                 
500000    na        3.887E-03 3.301E-05 3.856E+05 0.120     6.33E+02
*                                                                        
*---- ----1---- ----2---- ----3---- ----4---- ----5---- ----6---- ----7---- ----8---- ----9--       
*    BASE IRRADIATION TIME CARD                                                                     
*---- ----1---- ----2---- ----3---- ----4---- ----5---- ----6---- ----7---- ----8---- ----9--       
*crdno    tstart    tend                dtout                                                       
600000    0.0      1.8811E+08           1000.0
600001  3.6000E+03
600001  3.8880E+06
600001  5.1840E+06
600001  6.4800E+06
600001  7.7760E+06
600001  1.1664E+07
600001  1.5552E+07
600001  3.1536E+07
600001  4.7347E+07
600001  6.3072E+07
600001  9.4608E+07
600001  1.0000E+08
600001  1.1000E+08
600001  1.1800E+08
600001  1.2614E+08
600001  1.3500E+08
600001  1.4500E+08
600001  1.5768E+08
600001  1.6500E+08
600001  1.7500E+08
600001  1.8809E+08
$ 